\* Source Pyomo model name=unknown *\

min 
x60:
+0.00097736976533489882 x1
+0.0010268894595070275 x10
+0.0010398441451031782 x11
+0.0010208521537207807 x12
+0.0010122078567294762 x13
+0.0010153367659273219 x14
+0.0009827123735930204 x15
+0 x16
+0.044343287561264183 x17
+0 x18
+0 x19
+0.013200067322105184 x2
+0 x20
+0 x21
+0 x22
+0 x23
+0 x24
+0 x25
+0 x26
+0 x27
+0 x28
+0 x29
+0 x3
+0 x30
+0 x31
+0 x32
+0 x33
+0 x34
+0.0010287307478051661 x4
+0 x5
+0 x6
+0 x7
+0.024837778852500922 x8
+0.00096062403479259771 x9

s.t.

c_e_x61_:
-1 x35
+1 x8
= 0

c_e_x62_:
+1 x2
-1 x36
= 0

c_e_x63_:
+1 x17
-1 x37
= 0

c_e_x64_:
-0.52675152012461379 x51
+1 x9
= 0

c_e_x65_:
+1 x10
-0.77491362127437136 x52
= 0

c_e_x66_:
+1 x1
-0.851377481903698 x53
= 0

c_e_x67_:
+1 x11
-0.92883220806538092 x54
= 0

c_e_x68_:
+1 x12
-0.092783237095311527 x55
= 0

c_e_x69_:
+1 x13
-0.68290891406180121 x56
= 0

c_e_x70_:
+1 x4
-0.67579007624549448 x57
= 0

c_e_x71_:
+1 x14
-1.5402764041971624 x58
= 0

c_e_x72_:
-1 x35
+1 x51
= 0

c_e_x73_:
-1 x45
+1 x52
= 0

c_e_x74_:
-1 x37
+1 x53
= 0

c_e_x75_:
-1 x36
+1 x54
= 0

c_e_x76_:
-1 x41
+1 x55
= 0

c_e_x77_:
-1 x42
+1 x56
= 0

c_e_x78_:
-1 x43
+1 x57
= 0

c_e_x79_:
-1 x44
+1 x58
= 0

c_e_x80_:
-1 x35
+1 x51
= 0

c_e_x81_:
-1 x36
+1 x54
= 0

c_e_x82_:
-1 x37
+1 x53
= 0

c_e_x83_:
-1 x41
+1 x55
= 0

c_e_x84_:
-1 x42
+1 x56
= 0

c_e_x85_:
-1 x43
+1 x57
= 0

c_e_x86_:
-1 x44
+1 x58
= 0

c_e_x87_:
-1 x45
+1 x52
= 0

c_e_x88_:
-1 x38
+1 x9
= 0

c_e_x89_:
+1 x11
-1 x39
= 0

c_e_x90_:
+1 x1
-1 x40
= 0

c_e_x91_:
+1 x12
-1 x46
= 0

c_e_x92_:
+1 x13
-1 x47
= 0

c_e_x93_:
+1 x4
-1 x48
= 0

c_e_x94_:
+1 x14
-1 x49
= 0

c_e_x95_:
+1 x10
-1 x50
= 0

c_e_x96_:
+1 x50
= 913.12684119801838

c_e_x97_:
+1 x46
= 6.9511019186029372

c_e_x98_:
+1 x47
= 24.452795615706695

c_e_x99_:
+1 x48
= 129.7092244577546

c_e_x100_:
+1 x49
= 407.92319048866312

c_e_x101_:
+1 x16
-1 x50
= 0

c_e_x102_:
+1 x3
-1 x46
= 0

c_e_x103_:
-1 x47
+1 x5
= 0

c_e_x104_:
-1 x48
+1 x6
= 0

c_e_x105_:
-1 x49
+1 x7
= 0

c_e_x106_:
+1 x38
+1 x39
+1 x40
-1 x41
-1 x42
-1 x43
-1 x44
-1 x45
= 0

c_e_x107_:
+1 x15
-1 x38
-1 x39
-1 x40
= 0

c_u_x108_:
+1 x1
+ [
-1 x1 * x18
]
<= 0

c_u_x109_:
+1 x2
+ [
-1 x19 * x2
]
<= 0

c_u_x110_:
+1 x3
+ [
-1 x20 * x3
]
<= 0

c_u_x111_:
+1 x4
+ [
-1 x21 * x4
]
<= 0

c_u_x112_:
+1 x5
+ [
-1 x22 * x5
]
<= 0

c_u_x113_:
+1 x6
+ [
-1 x23 * x6
]
<= 0

c_u_x114_:
+1 x7
+ [
-1 x24 * x7
]
<= 0

c_u_x115_:
+1 x8
+ [
-1 x25 * x8
]
<= 0

c_u_x116_:
+1 x9
+ [
-1 x26 * x9
]
<= 0

c_u_x117_:
+1 x10
+ [
-1 x10 * x27
]
<= 0

c_u_x118_:
+1 x11
+ [
-1 x11 * x28
]
<= 0

c_u_x119_:
+1 x12
+ [
-1 x12 * x29
]
<= 0

c_u_x120_:
+1 x13
+ [
-1 x13 * x30
]
<= 0

c_u_x121_:
+1 x14
+ [
-1 x14 * x31
]
<= 0

c_u_x122_:
+1 x15
+ [
-1 x15 * x32
]
<= 0

c_u_x123_:
+1 x16
+ [
-1 x16 * x33
]
<= 0

c_u_x124_:
+1 x17
+ [
-1 x17 * x34
]
<= 0

c_e_x125_:
+0 x17
+0.073200000000000001 x2
-1 x59
+0 x8
= 0

c_u_x126_:
+1 x59
<= 87.213999999999999

c_e_ONE_VAR_CONSTANT: 
ONE_VAR_CONSTANT = 1.0

bounds
   0 <= x1 <= 999999
   0 <= x2 <= +inf
   0 <= x3 <= +inf
   0 <= x4 <= 999999
   0 <= x5 <= +inf
   0 <= x6 <= +inf
   0 <= x7 <= +inf
   352.10918643334531 <= x8 <= 352.10918643334531
   0 <= x9 <= 999999
   0 <= x10 <= 999999
   0 <= x11 <= 999999
   0 <= x12 <= 999999
   0 <= x13 <= 999999
   0 <= x14 <= 999999
   0 <= x15 <= +inf
   0 <= x16 <= +inf
   0 <= x17 <= +inf
   0 <= x18 <= 1
   0 <= x19 <= 1
   0 <= x20 <= 1
   0 <= x21 <= 1
   0 <= x22 <= 1
   0 <= x23 <= 1
   0 <= x24 <= 1
   0 <= x25 <= 1
   0 <= x26 <= 1
   0 <= x27 <= 1
   0 <= x28 <= 1
   0 <= x29 <= 1
   0 <= x30 <= 1
   0 <= x31 <= 1
   0 <= x32 <= 1
   0 <= x33 <= 1
   0 <= x34 <= 1
   0 <= x35 <= +inf
   0 <= x36 <= +inf
   0 <= x37 <= +inf
   0 <= x38 <= +inf
   0 <= x39 <= +inf
   0 <= x40 <= +inf
   0 <= x41 <= +inf
   0 <= x42 <= +inf
   0 <= x43 <= +inf
   0 <= x44 <= +inf
   0 <= x45 <= +inf
   0 <= x46 <= +inf
   0 <= x47 <= +inf
   0 <= x48 <= +inf
   0 <= x49 <= +inf
   0 <= x50 <= +inf
   0 <= x51 <= +inf
   0 <= x52 <= +inf
   0 <= x53 <= +inf
   0 <= x54 <= +inf
   0 <= x55 <= +inf
   0 <= x56 <= +inf
   0 <= x57 <= +inf
   0 <= x58 <= +inf
   0 <= x59 <= +inf
binary
  x18
  x19
  x20
  x21
  x22
  x23
  x24
  x25
  x26
  x27
  x28
  x29
  x30
  x31
  x32
  x33
  x34
end
